c description: Perfect Matching Principle on 
c generator: CNFgen (0.9.0)
c copyright: (C) 2012-2020 Massimo Lauria <massimo.lauria@uniroma1.it>
c url: https://massimolauria.net/cnfgen
c
p cnf 60 247
-1 -2 0
-1 -3 0
-2 -3 0
1 2 3 0
-4 -5 0
4 5 0
-1 -6 0
-1 -7 0
-1 -8 0
-6 -7 0
-6 -8 0
-7 -8 0
1 6 7 8 0
-6 -9 0
-6 -10 0
-9 -10 0
6 9 10 0
-11 -12 0
-11 -13 0
-11 -14 0
-12 -13 0
-12 -14 0
-13 -14 0
11 12 13 14 0
-7 -9 0
-7 -15 0
-7 -16 0
-7 -17 0
-7 -18 0
-7 -19 0
-9 -15 0
-9 -16 0
-9 -17 0
-9 -18 0
-9 -19 0
-15 -16 0
-15 -17 0
-15 -18 0
-15 -19 0
-16 -17 0
-16 -18 0
-16 -19 0
-17 -18 0
-17 -19 0
-18 -19 0
7 9 15 16 17 18 19 0
-20 -21 0
-20 -22 0
-21 -22 0
20 21 22 0
-20 -23 0
-20 -24 0
-20 -25 0
-20 -26 0
-20 -27 0
-20 -28 0
-23 -24 0
-23 -25 0
-23 -26 0
-23 -27 0
-23 -28 0
-24 -25 0
-24 -26 0
-24 -27 0
-24 -28 0
-25 -26 0
-25 -27 0
-25 -28 0
-26 -27 0
-26 -28 0
-27 -28 0
20 23 24 25 26 27 28 0
29 0
-11 -30 0
-11 -31 0
-11 -32 0
-30 -31 0
-30 -32 0
-31 -32 0
11 30 31 32 0
-2 -12 0
-2 -33 0
-2 -34 0
-2 -35 0
-2 -36 0
-12 -33 0
-12 -34 0
-12 -35 0
-12 -36 0
-33 -34 0
-33 -35 0
-33 -36 0
-34 -35 0
-34 -36 0
-35 -36 0
2 12 33 34 35 36 0
-15 -23 0
-15 -37 0
-15 -38 0
-15 -39 0
-23 -37 0
-23 -38 0
-23 -39 0
-37 -38 0
-37 -39 0
-38 -39 0
15 23 37 38 39 0
-3 -40 0
-3 -41 0
-3 -42 0
-40 -41 0
-40 -42 0
-41 -42 0
3 40 41 42 0
-4 -21 0
-4 -30 0
-4 -43 0
-4 -44 0
-4 -45 0
-21 -30 0
-21 -43 0
-21 -44 0
-21 -45 0
-30 -43 0
-30 -44 0
-30 -45 0
-43 -44 0
-43 -45 0
-44 -45 0
4 21 30 43 44 45 0
-13 -40 0
-13 -43 0
-13 -46 0
-40 -43 0
-40 -46 0
-43 -46 0
13 40 43 46 0
-31 -47 0
-31 -48 0
-47 -48 0
31 47 48 0
-16 -33 0
-16 -49 0
-16 -50 0
-33 -49 0
-33 -50 0
-49 -50 0
16 33 49 50 0
-17 -37 0
-17 -51 0
-37 -51 0
17 37 51 0
-10 -47 0
-10 -52 0
-10 -53 0
-47 -52 0
-47 -53 0
-52 -53 0
10 47 52 53 0
-24 -29 0
-24 -32 0
-24 -54 0
-24 -55 0
-29 -32 0
-29 -54 0
-29 -55 0
-32 -54 0
-32 -55 0
-54 -55 0
24 29 32 54 55 0
25 0
-44 -46 0
-44 -51 0
-44 -54 0
-46 -51 0
-46 -54 0
-51 -54 0
44 46 51 54 0
-5 -18 0
-5 -26 0
-5 -34 0
-5 -56 0
-18 -26 0
-18 -34 0
-18 -56 0
-26 -34 0
-26 -56 0
-34 -56 0
5 18 26 34 56 0
-19 -38 0
-19 -57 0
-19 -58 0
-19 -59 0
-38 -57 0
-38 -58 0
-38 -59 0
-57 -58 0
-57 -59 0
-58 -59 0
19 38 57 58 59 0
-22 -45 0
22 45 0
-27 -41 0
-27 -52 0
-27 -57 0
-41 -52 0
-41 -57 0
-52 -57 0
27 41 52 57 0
-8 -35 0
-8 -39 0
-8 -49 0
-8 -56 0
-8 -58 0
-8 -60 0
-35 -39 0
-35 -49 0
-35 -56 0
-35 -58 0
-35 -60 0
-39 -49 0
-39 -56 0
-39 -58 0
-39 -60 0
-49 -56 0
-49 -58 0
-49 -60 0
-56 -58 0
-56 -60 0
-58 -60 0
8 35 39 49 56 58 60 0
-55 -59 0
55 59 0
-28 -36 0
-28 -42 0
-28 -50 0
-36 -42 0
-36 -50 0
-42 -50 0
28 36 42 50 0
-14 -48 0
-14 -53 0
-14 -60 0
-48 -53 0
-48 -60 0
-53 -60 0
14 48 53 60 0